\* The Best Team *\
Maximize
OBJ: 11.3 ID_nfl.p.24057 + 14.6 ID_nfl.p.24793 + 16.9 ID_nfl.p.24815
 + 16.4 ID_nfl.p.24822 + 1.3 ID_nfl.p.24830 + 2.2 ID_nfl.p.24834
 + 0.7 ID_nfl.p.24891 + 0.4 ID_nfl.p.24913 + 0.7 ID_nfl.p.24923
 + 3 ID_nfl.p.24936 + 1.5 ID_nfl.p.24961 + 0.1 ID_nfl.p.24967
 + 1.1 ID_nfl.p.24991 + 7.1 ID_nfl.p.25712 - 0.2 ID_nfl.p.25718
 + 13 ID_nfl.p.25755 + 25.3 ID_nfl.p.25785 + 9.8 ID_nfl.p.25793
 + 1.4 ID_nfl.p.25810 + 13.1 ID_nfl.p.25812 + 14.8 ID_nfl.p.26483
 + 6.3 ID_nfl.p.26612 + 1.9 ID_nfl.p.26631 + 4.4 ID_nfl.p.26644
 + 12.2 ID_nfl.p.26650 + 10.7 ID_nfl.p.26658 + 3.9 ID_nfl.p.26660
 - 2.2 ID_nfl.p.26662 + 11.1 ID_nfl.p.26664 + 14.2 ID_nfl.p.26671
 + 7.7 ID_nfl.p.26678 + 12.8 ID_nfl.p.26686 + 16.9 ID_nfl.p.26699
 + 7.1 ID_nfl.p.26701 + 3.9 ID_nfl.p.26756 + 9.2 ID_nfl.p.26777
 + 2.6 ID_nfl.p.26781 + 4.3 ID_nfl.p.26804 + 0.3 ID_nfl.p.26805
 + ID_nfl.p.26824 + 2.8 ID_nfl.p.26950 + 3.4 ID_nfl.p.27074
 + 0.3 ID_nfl.p.27135 + 1.6 ID_nfl.p.27174 + 14.2 ID_nfl.p.27277
 + 14.2 ID_nfl.p.27531 + 10.3 ID_nfl.p.27540 + 10.4 ID_nfl.p.27548
 + 14.8 ID_nfl.p.27560 + ID_nfl.p.27567 + 5.2 ID_nfl.p.27570
 + 7.7 ID_nfl.p.27573 + 9.3 ID_nfl.p.27585 + 15.4 ID_nfl.p.27590
 + 10.5 ID_nfl.p.27591 + 1.1 ID_nfl.p.27618 + 10.2 ID_nfl.p.27631
 + 0.3 ID_nfl.p.27652 + 0.1 ID_nfl.p.27692 + 1.9 ID_nfl.p.27874
 + 7.7 ID_nfl.p.28026 + 2.4 ID_nfl.p.28046 + 9.3 ID_nfl.p.28115
 + 0.5 ID_nfl.p.28141 + 3 ID_nfl.p.28214 + 0.6 ID_nfl.p.28279
 + 17 ID_nfl.p.28390 + 19.4 ID_nfl.p.28392 + 7.8 ID_nfl.p.28402
 + 5.8 ID_nfl.p.28403 + 8.9 ID_nfl.p.28408 + 6.6 ID_nfl.p.28425
 + 1.2 ID_nfl.p.28442 + 2.1 ID_nfl.p.28443 + 14 ID_nfl.p.28457
 + 11.1 ID_nfl.p.28461 + 7.5 ID_nfl.p.28464 + 6.7 ID_nfl.p.28465
 - 0.2 ID_nfl.p.28477 + 3.4 ID_nfl.p.28480 + 1.5 ID_nfl.p.28482
 + 7.2 ID_nfl.p.28493 + 2 ID_nfl.p.28495 + 0.4 ID_nfl.p.28505
 + 7.1 ID_nfl.p.28534 + 2.8 ID_nfl.p.28545 + 3 ID_nfl.p.28559
 + 1.8 ID_nfl.p.28574 + 1.6 ID_nfl.p.28582 + 2.4 ID_nfl.p.28634
 + 9.1 ID_nfl.p.28654 + 0.1 ID_nfl.p.28947 + 5 ID_nfl.p.28990
 + 0.5 ID_nfl.p.29038 + 4.4 ID_nfl.p.29070 + 17.7 ID_nfl.p.29235
 + 19.6 ID_nfl.p.29236 + 15.3 ID_nfl.p.29238 + 14.4 ID_nfl.p.29255
 + 3.6 ID_nfl.p.29257 + 16.2 ID_nfl.p.29279 + 19 ID_nfl.p.29281
 + 13.1 ID_nfl.p.29288 + 6.6 ID_nfl.p.29307 + 13.5 ID_nfl.p.29315
 + 5.6 ID_nfl.p.29324 + 1.9 ID_nfl.p.29328 + 6.4 ID_nfl.p.29344
 + 4.3 ID_nfl.p.29351 + 10.9 ID_nfl.p.29360 + 24.1 ID_nfl.p.29369
 + 2.3 ID_nfl.p.29372 + 3.3 ID_nfl.p.29374 + 12.5 ID_nfl.p.29384
 + 1.7 ID_nfl.p.29387 + 3.1 ID_nfl.p.29399 + 5.6 ID_nfl.p.29406
 + 1.7 ID_nfl.p.29410 + 2.3 ID_nfl.p.29421 + ID_nfl.p.29432
 + 1.5 ID_nfl.p.29703 + 4.6 ID_nfl.p.29785 + 0.8 ID_nfl.p.29951
 + 0.3 ID_nfl.p.29958 + 5.2 ID_nfl.p.30061 + 15.9 ID_nfl.p.30117
 + 6.5 ID_nfl.p.30118 + 7.5 ID_nfl.p.30120 + 24.7 ID_nfl.p.30123
 + 24.8 ID_nfl.p.30125 + 22.5 ID_nfl.p.30154 + 7.5 ID_nfl.p.30157
 + 8.6 ID_nfl.p.30161 + 11.1 ID_nfl.p.30175 + 16.8 ID_nfl.p.30180
 + 19.1 ID_nfl.p.30182 + 3.1 ID_nfl.p.30213 + 16.4 ID_nfl.p.30217
 + 12 ID_nfl.p.30218 + 8.2 ID_nfl.p.30223 + 0.9 ID_nfl.p.30230
 + 4.4 ID_nfl.p.30231 + 1.6 ID_nfl.p.30246 + 0.4 ID_nfl.p.30248
 + 2.2 ID_nfl.p.30267 + 3 ID_nfl.p.30269 + 4.1 ID_nfl.p.30339
 + 1.9 ID_nfl.p.30350 + 13.6 ID_nfl.p.30362 + 0.5 ID_nfl.p.30373
 + 2.4 ID_nfl.p.30396 + 22 ID_nfl.p.30423 + 1.6 ID_nfl.p.30430
 + 5.9 ID_nfl.p.30494 + 2.1 ID_nfl.p.30551 + 13.4 ID_nfl.p.30552
 + 16.7 ID_nfl.p.30563 + 4.2 ID_nfl.p.30571 + 2.5 ID_nfl.p.30592
 + 3.2 ID_nfl.p.30614 + 0.8 ID_nfl.p.30627 + 2.7 ID_nfl.p.30656
 + 5.3 ID_nfl.p.30784 + 11.2 ID_nfl.p.30971 + 13 ID_nfl.p.30973
 + 5.4 ID_nfl.p.30980 + 4.9 ID_nfl.p.30995 + 11.6 ID_nfl.p.30996
 + 25.3 ID_nfl.p.31002 + 18.2 ID_nfl.p.31005 + 14.2 ID_nfl.p.31010
 + 2.7 ID_nfl.p.31012 + 3.4 ID_nfl.p.31014 + 3.2 ID_nfl.p.31019
 + 18.4 ID_nfl.p.31031 + 8.7 ID_nfl.p.31041 + 16.6 ID_nfl.p.31051
 + 12.6 ID_nfl.p.31056 + 6.5 ID_nfl.p.31068 + 4.3 ID_nfl.p.31073
 + 2.6 ID_nfl.p.31082 + 3.7 ID_nfl.p.31083 + 12.5 ID_nfl.p.31090
 + ID_nfl.p.31093 + 5.9 ID_nfl.p.31096 + 1.8 ID_nfl.p.31100
 + 5.2 ID_nfl.p.31104 + 2.2 ID_nfl.p.31107 + 1.2 ID_nfl.p.31126
 + 2.6 ID_nfl.p.31127 + 1.1 ID_nfl.p.31164 + 3.9 ID_nfl.p.31169
 + ID_nfl.p.31180 + 3.2 ID_nfl.p.31210 + 6.2 ID_nfl.p.31221 + 7 ID_nfl.p.31223
 + 5.1 ID_nfl.p.31226 + 2.8 ID_nfl.p.31228 + 1.2 ID_nfl.p.31320
 + 0.4 ID_nfl.p.31329 + 14.7 ID_nfl.p.31379 + 14.6 ID_nfl.p.31394
 + 4.3 ID_nfl.p.31424 + 5.2 ID_nfl.p.31457 + 7.4 ID_nfl.p.31496
 + 15.2 ID_nfl.p.31500 + 5.3 ID_nfl.p.31519 + 7.9 ID_nfl.p.31588
 + 4.9 ID_nfl.p.31777 + 20.3 ID_nfl.p.31833 + 3.6 ID_nfl.p.31847
 + 4.6 ID_nfl.p.31852 + 6.9 ID_nfl.p.31868 + 3 ID_nfl.p.31882
 + 8.6 ID_nfl.p.31883 + 3.5 ID_nfl.p.31884 + 7.1 ID_nfl.p.31885
 + 8.1 ID_nfl.p.31888 + 1.2 ID_nfl.p.31889 + 0.4 ID_nfl.p.31894
 + 8.9 ID_nfl.p.31896 + 7.9 ID_nfl.p.31898 + 14.6 ID_nfl.p.31908
 + 4.8 ID_nfl.p.31925 + 5.2 ID_nfl.p.31934 + 1.6 ID_nfl.p.31945
 + ID_nfl.p.31954 + 6.9 ID_nfl.p.31960 + 4.4 ID_nfl.p.31972
 + 4.5 ID_nfl.p.32006 + 18.1 ID_nfl.p.32010 + 1.8 ID_nfl.p.32038
 + 0.6 ID_nfl.p.32046 + 5.9 ID_nfl.p.32079 + 3.9 ID_nfl.p.32187
 + 0.8 ID_nfl.p.32225 + 1.4 ID_nfl.p.32398 + 8.4 ID_nfl.p.32447
 + 1.1 ID_nfl.p.32469 + 3.2 ID_nfl.p.32471 + 4.7 ID_nfl.p.32581
 + 3 ID_nfl.p.32608 + 0.4 ID_nfl.p.5967 + 7.2 ID_nfl.p.6405
 + 12.5 ID_nfl.p.6762 + 16.6 ID_nfl.p.6763 + 0.3 ID_nfl.p.6849
 + 4.5 ID_nfl.p.7426 + 7.6 ID_nfl.p.7924 + 4.7 ID_nfl.p.8261
 + 7.5 ID_nfl.p.8263 - 0.1 ID_nfl.p.8544 + 22.9 ID_nfl.p.8780
 + 13.9 ID_nfl.p.8795 + 10.5 ID_nfl.p.9317 + 5 ID_nfl.p.9353 + 1.8 ID_nfl.t.1
 + 10 ID_nfl.t.10 + 6.8 ID_nfl.t.12 + 6.8 ID_nfl.t.14 + 0.5 ID_nfl.t.15
 + 8.6 ID_nfl.t.16 + 8.6 ID_nfl.t.18 + 10.8 ID_nfl.t.20 + 10 ID_nfl.t.21
 + 2.8 ID_nfl.t.22 + 9.6 ID_nfl.t.23 + 7.8 ID_nfl.t.24 + 15 ID_nfl.t.25
 + 7.2 ID_nfl.t.26 + 4.2 ID_nfl.t.28 + 5 ID_nfl.t.30 + 4.2 ID_nfl.t.33
 + 7.8 ID_nfl.t.34 + 2.4 ID_nfl.t.4 + 7 ID_nfl.t.5 + 6.2 ID_nfl.t.6
 + 3.6 ID_nfl.t.7
Subject To
_C1: 20 ID_nfl.p.24057 + 33 ID_nfl.p.24793 + 27 ID_nfl.p.24815
 + 25 ID_nfl.p.24822 + 10 ID_nfl.p.24830 + 10 ID_nfl.p.24834
 + 10 ID_nfl.p.24891 + 10 ID_nfl.p.24913 + 10 ID_nfl.p.24923
 + 11 ID_nfl.p.24936 + 10 ID_nfl.p.24961 + 20 ID_nfl.p.24967
 + 10 ID_nfl.p.24991 + 10 ID_nfl.p.25295 + 20 ID_nfl.p.25712
 + 20 ID_nfl.p.25718 + 21 ID_nfl.p.25755 + 36 ID_nfl.p.25785
 + 14 ID_nfl.p.25793 + 10 ID_nfl.p.25810 + 24 ID_nfl.p.25812
 + 10 ID_nfl.p.26016 + 23 ID_nfl.p.26483 + 10 ID_nfl.p.26535
 + 10 ID_nfl.p.26612 + 10 ID_nfl.p.26631 + 12 ID_nfl.p.26644
 + 33 ID_nfl.p.26650 + 22 ID_nfl.p.26658 + 11 ID_nfl.p.26660
 + 20 ID_nfl.p.26662 + 18 ID_nfl.p.26664 + 28 ID_nfl.p.26671
 + 12 ID_nfl.p.26678 + 26 ID_nfl.p.26686 + 29 ID_nfl.p.26699
 + 12 ID_nfl.p.26701 + 10 ID_nfl.p.26756 + 16 ID_nfl.p.26777
 + 10 ID_nfl.p.26781 + 10 ID_nfl.p.26804 + 10 ID_nfl.p.26805
 + 10 ID_nfl.p.26824 + 10 ID_nfl.p.26950 + 10 ID_nfl.p.27074
 + 10 ID_nfl.p.27135 + 10 ID_nfl.p.27174 + 31 ID_nfl.p.27277
 + 10 ID_nfl.p.27494 + 20 ID_nfl.p.27531 + 30 ID_nfl.p.27540
 + 19 ID_nfl.p.27548 + 22 ID_nfl.p.27560 + 10 ID_nfl.p.27567
 + 10 ID_nfl.p.27570 + 11 ID_nfl.p.27573 + 18 ID_nfl.p.27585
 + 27 ID_nfl.p.27590 + 18 ID_nfl.p.27591 + 10 ID_nfl.p.27618
 + 17 ID_nfl.p.27631 + 10 ID_nfl.p.27652 + 20 ID_nfl.p.27692
 + 20 ID_nfl.p.27711 + 20 ID_nfl.p.27742 + 10 ID_nfl.p.27874
 + 13 ID_nfl.p.28026 + 14 ID_nfl.p.28046 + 24 ID_nfl.p.28115
 + 10 ID_nfl.p.28141 + 10 ID_nfl.p.28214 + 10 ID_nfl.p.28221
 + 10 ID_nfl.p.28279 + 10 ID_nfl.p.28348 + 22 ID_nfl.p.28390
 + 32 ID_nfl.p.28392 + 14 ID_nfl.p.28402 + 28 ID_nfl.p.28403
 + 13 ID_nfl.p.28408 + 10 ID_nfl.p.28425 + 10 ID_nfl.p.28442
 + 10 ID_nfl.p.28443 + 24 ID_nfl.p.28457 + 18 ID_nfl.p.28461
 + 14 ID_nfl.p.28464 + 13 ID_nfl.p.28465 + 20 ID_nfl.p.28477
 + 10 ID_nfl.p.28480 + 10 ID_nfl.p.28482 + 10 ID_nfl.p.28493
 + 10 ID_nfl.p.28495 + 10 ID_nfl.p.28505 + 10 ID_nfl.p.28531
 + 21 ID_nfl.p.28534 + 20 ID_nfl.p.28535 + 10 ID_nfl.p.28545
 + 10 ID_nfl.p.28559 + 10 ID_nfl.p.28574 + 10 ID_nfl.p.28582
 + 10 ID_nfl.p.28634 + 14 ID_nfl.p.28654 + 10 ID_nfl.p.28947
 + 10 ID_nfl.p.28990 + 10 ID_nfl.p.29038 + 10 ID_nfl.p.29070
 + 10 ID_nfl.p.29102 + 30 ID_nfl.p.29235 + 30 ID_nfl.p.29236
 + 33 ID_nfl.p.29238 + 22 ID_nfl.p.29255 + 10 ID_nfl.p.29257
 + 28 ID_nfl.p.29279 + 33 ID_nfl.p.29281 + 20 ID_nfl.p.29288
 + 15 ID_nfl.p.29307 + 25 ID_nfl.p.29315 + 11 ID_nfl.p.29324
 + 10 ID_nfl.p.29328 + 10 ID_nfl.p.29341 + 10 ID_nfl.p.29344
 + 10 ID_nfl.p.29351 + 18 ID_nfl.p.29360 + 36 ID_nfl.p.29369
 + 10 ID_nfl.p.29370 + 10 ID_nfl.p.29372 + 10 ID_nfl.p.29374
 + 17 ID_nfl.p.29384 + 13 ID_nfl.p.29387 + 36 ID_nfl.p.29399
 + 10 ID_nfl.p.29406 + 10 ID_nfl.p.29410 + 20 ID_nfl.p.29421
 + 10 ID_nfl.p.29432 + 20 ID_nfl.p.29435 + 10 ID_nfl.p.29440
 + 10 ID_nfl.p.29470 + 10 ID_nfl.p.29703 + 10 ID_nfl.p.29785
 + 10 ID_nfl.p.29789 + 10 ID_nfl.p.29872 + 10 ID_nfl.p.29951
 + 10 ID_nfl.p.29958 + 10 ID_nfl.p.30061 + 25 ID_nfl.p.30117
 + 11 ID_nfl.p.30118 + 18 ID_nfl.p.30120 + 40 ID_nfl.p.30123
 + 37 ID_nfl.p.30125 + 32 ID_nfl.p.30154 + 15 ID_nfl.p.30157
 + 17 ID_nfl.p.30161 + 24 ID_nfl.p.30175 + 29 ID_nfl.p.30180
 + 28 ID_nfl.p.30182 + 10 ID_nfl.p.30213 + 20 ID_nfl.p.30217
 + 24 ID_nfl.p.30218 + 16 ID_nfl.p.30223 + 10 ID_nfl.p.30227
 + 10 ID_nfl.p.30230 + 10 ID_nfl.p.30231 + 10 ID_nfl.p.30246
 + 20 ID_nfl.p.30248 + 10 ID_nfl.p.30267 + 10 ID_nfl.p.30269
 + 10 ID_nfl.p.30339 + 10 ID_nfl.p.30350 + 27 ID_nfl.p.30362
 + 10 ID_nfl.p.30373 + 10 ID_nfl.p.30396 + 22 ID_nfl.p.30423
 + 10 ID_nfl.p.30430 + 14 ID_nfl.p.30494 + 10 ID_nfl.p.30523
 + 10 ID_nfl.p.30531 + 10 ID_nfl.p.30551 + 17 ID_nfl.p.30552
 + 20 ID_nfl.p.30563 + 10 ID_nfl.p.30571 + 10 ID_nfl.p.30577
 + 10 ID_nfl.p.30592 + 20 ID_nfl.p.30614 + 10 ID_nfl.p.30627
 + 10 ID_nfl.p.30656 + 10 ID_nfl.p.30784 + 20 ID_nfl.p.30788
 + 10 ID_nfl.p.30901 + 30 ID_nfl.p.30971 + 22 ID_nfl.p.30973
 + 22 ID_nfl.p.30980 + 10 ID_nfl.p.30995 + 18 ID_nfl.p.30996
 + 36 ID_nfl.p.31002 + 31 ID_nfl.p.31005 + 18 ID_nfl.p.31010
 + 10 ID_nfl.p.31012 + 10 ID_nfl.p.31014 + 10 ID_nfl.p.31019
 + 22 ID_nfl.p.31031 + 16 ID_nfl.p.31041 + 21 ID_nfl.p.31051
 + 21 ID_nfl.p.31056 + 12 ID_nfl.p.31068 + 10 ID_nfl.p.31073
 + 10 ID_nfl.p.31075 + 11 ID_nfl.p.31082 + 10 ID_nfl.p.31083
 + 22 ID_nfl.p.31090 + 10 ID_nfl.p.31093 + 10 ID_nfl.p.31096
 + 10 ID_nfl.p.31100 + 10 ID_nfl.p.31102 + 12 ID_nfl.p.31104
 + 10 ID_nfl.p.31107 + 10 ID_nfl.p.31126 + 10 ID_nfl.p.31127
 + 10 ID_nfl.p.31164 + 20 ID_nfl.p.31169 + 10 ID_nfl.p.31174
 + 10 ID_nfl.p.31178 + 10 ID_nfl.p.31180 + 10 ID_nfl.p.31210
 + 13 ID_nfl.p.31221 + 17 ID_nfl.p.31223 + 11 ID_nfl.p.31226
 + 10 ID_nfl.p.31228 + 10 ID_nfl.p.31320 + 10 ID_nfl.p.31329
 + 18 ID_nfl.p.31379 + 14 ID_nfl.p.31394 + 15 ID_nfl.p.31424
 + 12 ID_nfl.p.31457 + 13 ID_nfl.p.31496 + 13 ID_nfl.p.31500
 + 10 ID_nfl.p.31519 + 10 ID_nfl.p.31537 + 10 ID_nfl.p.31557
 + 10 ID_nfl.p.31588 + 10 ID_nfl.p.31749 + 10 ID_nfl.p.31769
 + 10 ID_nfl.p.31777 + 26 ID_nfl.p.31833 + 23 ID_nfl.p.31847
 + 13 ID_nfl.p.31852 + 16 ID_nfl.p.31868 + 11 ID_nfl.p.31882
 + 13 ID_nfl.p.31883 + 10 ID_nfl.p.31884 + 11 ID_nfl.p.31885
 + 12 ID_nfl.p.31888 + 10 ID_nfl.p.31889 + 10 ID_nfl.p.31894
 + 16 ID_nfl.p.31896 + 12 ID_nfl.p.31898 + 10 ID_nfl.p.31902
 + 20 ID_nfl.p.31908 + 10 ID_nfl.p.31925 + 11 ID_nfl.p.31934
 + 20 ID_nfl.p.31936 + 13 ID_nfl.p.31945 + 10 ID_nfl.p.31953
 + 10 ID_nfl.p.31954 + 11 ID_nfl.p.31960 + 10 ID_nfl.p.31972
 + 10 ID_nfl.p.31973 + 10 ID_nfl.p.31984 + 20 ID_nfl.p.31998
 + 10 ID_nfl.p.32006 + 29 ID_nfl.p.32010 + 10 ID_nfl.p.32014
 + 10 ID_nfl.p.32019 + 10 ID_nfl.p.32036 + 10 ID_nfl.p.32038
 + 10 ID_nfl.p.32046 + 10 ID_nfl.p.32052 + 10 ID_nfl.p.32079
 + 10 ID_nfl.p.32123 + 10 ID_nfl.p.32137 + 10 ID_nfl.p.32141
 + 10 ID_nfl.p.32187 + 10 ID_nfl.p.32225 + 10 ID_nfl.p.32295
 + 10 ID_nfl.p.32306 + 10 ID_nfl.p.32390 + 10 ID_nfl.p.32398
 + 10 ID_nfl.p.32439 + 14 ID_nfl.p.32447 + 10 ID_nfl.p.32469
 + 10 ID_nfl.p.32471 + 10 ID_nfl.p.32494 + 10 ID_nfl.p.32556
 + 20 ID_nfl.p.32581 + 10 ID_nfl.p.32608 + 20 ID_nfl.p.5967 + 12 ID_nfl.p.6405
 + 19 ID_nfl.p.6762 + 32 ID_nfl.p.6763 + 20 ID_nfl.p.6849 + 20 ID_nfl.p.7426
 + 14 ID_nfl.p.7924 + 16 ID_nfl.p.8261 + 16 ID_nfl.p.8263 + 10 ID_nfl.p.8497
 + 20 ID_nfl.p.8544 + 34 ID_nfl.p.8780 + 25 ID_nfl.p.8795 + 17 ID_nfl.p.9317
 + 12 ID_nfl.p.9353 + 10 ID_nfl.p.9537 + 11 ID_nfl.t.1 + 18 ID_nfl.t.10
 + 14 ID_nfl.t.12 + 14 ID_nfl.t.14 + 12 ID_nfl.t.15 + 14 ID_nfl.t.16
 + 17 ID_nfl.t.18 + 13 ID_nfl.t.20 + 11 ID_nfl.t.21 + 12 ID_nfl.t.22
 + 16 ID_nfl.t.23 + 12 ID_nfl.t.24 + 19 ID_nfl.t.25 + 16 ID_nfl.t.26
 + 14 ID_nfl.t.28 + 12 ID_nfl.t.30 + 14 ID_nfl.t.33 + 10 ID_nfl.t.34
 + 10 ID_nfl.t.4 + 15 ID_nfl.t.5 + 17 ID_nfl.t.6 + 10 ID_nfl.t.7 <= 200
_C10: ID_nfl.p.24057 + ID_nfl.p.24793 + ID_nfl.p.24815 + ID_nfl.p.24822
 + ID_nfl.p.24830 + ID_nfl.p.24834 + ID_nfl.p.24891 + ID_nfl.p.24913
 + ID_nfl.p.24923 + ID_nfl.p.24936 + ID_nfl.p.24961 + ID_nfl.p.24967
 + ID_nfl.p.24991 + ID_nfl.p.25295 + ID_nfl.p.25712 + ID_nfl.p.25718
 + ID_nfl.p.25755 + ID_nfl.p.25785 + ID_nfl.p.25793 + ID_nfl.p.25810
 + ID_nfl.p.25812 + ID_nfl.p.26016 + ID_nfl.p.26483 + ID_nfl.p.26535
 + ID_nfl.p.26612 + ID_nfl.p.26631 + ID_nfl.p.26644 + ID_nfl.p.26650
 + ID_nfl.p.26658 + ID_nfl.p.26660 + ID_nfl.p.26662 + ID_nfl.p.26664
 + ID_nfl.p.26671 + ID_nfl.p.26678 + ID_nfl.p.26686 + ID_nfl.p.26699
 + ID_nfl.p.26701 + ID_nfl.p.26756 + ID_nfl.p.26777 + ID_nfl.p.26781
 + ID_nfl.p.26804 + ID_nfl.p.26805 + ID_nfl.p.26824 + ID_nfl.p.26950
 + ID_nfl.p.27074 + ID_nfl.p.27135 + ID_nfl.p.27174 + ID_nfl.p.27277
 + ID_nfl.p.27494 + ID_nfl.p.27531 + ID_nfl.p.27540 + ID_nfl.p.27548
 + ID_nfl.p.27560 + ID_nfl.p.27567 + ID_nfl.p.27570 + ID_nfl.p.27573
 + ID_nfl.p.27585 + ID_nfl.p.27590 + ID_nfl.p.27591 + ID_nfl.p.27618
 + ID_nfl.p.27631 + ID_nfl.p.27652 + ID_nfl.p.27692 + ID_nfl.p.27711
 + ID_nfl.p.27742 + ID_nfl.p.27874 + ID_nfl.p.28026 + ID_nfl.p.28046
 + ID_nfl.p.28115 + ID_nfl.p.28141 + ID_nfl.p.28214 + ID_nfl.p.28221
 + ID_nfl.p.28279 + ID_nfl.p.28348 + ID_nfl.p.28390 + ID_nfl.p.28392
 + ID_nfl.p.28402 + ID_nfl.p.28403 + ID_nfl.p.28408 + ID_nfl.p.28425
 + ID_nfl.p.28442 + ID_nfl.p.28443 + ID_nfl.p.28457 + ID_nfl.p.28461
 + ID_nfl.p.28464 + ID_nfl.p.28465 + ID_nfl.p.28477 + ID_nfl.p.28480
 + ID_nfl.p.28482 + ID_nfl.p.28493 + ID_nfl.p.28495 + ID_nfl.p.28505
 + ID_nfl.p.28531 + ID_nfl.p.28534 + ID_nfl.p.28535 + ID_nfl.p.28545
 + ID_nfl.p.28559 + ID_nfl.p.28574 + ID_nfl.p.28582 + ID_nfl.p.28634
 + ID_nfl.p.28654 + ID_nfl.p.28947 + ID_nfl.p.28990 + ID_nfl.p.29038
 + ID_nfl.p.29070 + ID_nfl.p.29102 + ID_nfl.p.29235 + ID_nfl.p.29236
 + ID_nfl.p.29238 + ID_nfl.p.29255 + ID_nfl.p.29257 + ID_nfl.p.29279
 + ID_nfl.p.29281 + ID_nfl.p.29288 + ID_nfl.p.29307 + ID_nfl.p.29315
 + ID_nfl.p.29324 + ID_nfl.p.29328 + ID_nfl.p.29341 + ID_nfl.p.29344
 + ID_nfl.p.29351 + ID_nfl.p.29360 + ID_nfl.p.29369 + ID_nfl.p.29370
 + ID_nfl.p.29372 + ID_nfl.p.29374 + ID_nfl.p.29384 + ID_nfl.p.29387
 + ID_nfl.p.29399 + ID_nfl.p.29406 + ID_nfl.p.29410 + ID_nfl.p.29421
 + ID_nfl.p.29432 + ID_nfl.p.29435 + ID_nfl.p.29440 + ID_nfl.p.29470
 + ID_nfl.p.29703 + ID_nfl.p.29785 + ID_nfl.p.29789 + ID_nfl.p.29872
 + ID_nfl.p.29951 + ID_nfl.p.29958 + ID_nfl.p.30061 + ID_nfl.p.30117
 + ID_nfl.p.30118 + ID_nfl.p.30120 + ID_nfl.p.30123 + ID_nfl.p.30125
 + ID_nfl.p.30154 + ID_nfl.p.30157 + ID_nfl.p.30161 + ID_nfl.p.30175
 + ID_nfl.p.30180 + ID_nfl.p.30182 + ID_nfl.p.30213 + ID_nfl.p.30217
 + ID_nfl.p.30218 + ID_nfl.p.30223 + ID_nfl.p.30227 + ID_nfl.p.30230
 + ID_nfl.p.30231 + ID_nfl.p.30246 + ID_nfl.p.30248 + ID_nfl.p.30267
 + ID_nfl.p.30269 + ID_nfl.p.30339 + ID_nfl.p.30350 + ID_nfl.p.30362
 + ID_nfl.p.30373 + ID_nfl.p.30396 + ID_nfl.p.30423 + ID_nfl.p.30430
 + ID_nfl.p.30494 + ID_nfl.p.30523 + ID_nfl.p.30531 + ID_nfl.p.30551
 + ID_nfl.p.30552 + ID_nfl.p.30563 + ID_nfl.p.30571 + ID_nfl.p.30577
 + ID_nfl.p.30592 + ID_nfl.p.30614 + ID_nfl.p.30627 + ID_nfl.p.30656
 + ID_nfl.p.30784 + ID_nfl.p.30788 + ID_nfl.p.30901 + ID_nfl.p.30971
 + ID_nfl.p.30973 + ID_nfl.p.30980 + ID_nfl.p.30995 + ID_nfl.p.30996
 + ID_nfl.p.31002 + ID_nfl.p.31005 + ID_nfl.p.31010 + ID_nfl.p.31012
 + ID_nfl.p.31014 + ID_nfl.p.31019 + ID_nfl.p.31031 + ID_nfl.p.31041
 + ID_nfl.p.31051 + ID_nfl.p.31056 + ID_nfl.p.31068 + ID_nfl.p.31073
 + ID_nfl.p.31075 + ID_nfl.p.31082 + ID_nfl.p.31083 + ID_nfl.p.31090
 + ID_nfl.p.31093 + ID_nfl.p.31096 + ID_nfl.p.31100 + ID_nfl.p.31102
 + ID_nfl.p.31104 + ID_nfl.p.31107 + ID_nfl.p.31126 + ID_nfl.p.31127
 + ID_nfl.p.31164 + ID_nfl.p.31169 + ID_nfl.p.31174 + ID_nfl.p.31178
 + ID_nfl.p.31180 + ID_nfl.p.31210 + ID_nfl.p.31221 + ID_nfl.p.31223
 + ID_nfl.p.31226 + ID_nfl.p.31228 + ID_nfl.p.31320 + ID_nfl.p.31329
 + ID_nfl.p.31379 + ID_nfl.p.31394 + ID_nfl.p.31424 + ID_nfl.p.31457
 + ID_nfl.p.31496 + ID_nfl.p.31500 + ID_nfl.p.31519 + ID_nfl.p.31537
 + ID_nfl.p.31557 + ID_nfl.p.31588 + ID_nfl.p.31749 + ID_nfl.p.31769
 + ID_nfl.p.31777 + ID_nfl.p.31833 + ID_nfl.p.31847 + ID_nfl.p.31852
 + ID_nfl.p.31868 + ID_nfl.p.31882 + ID_nfl.p.31883 + ID_nfl.p.31884
 + ID_nfl.p.31885 + ID_nfl.p.31888 + ID_nfl.p.31889 + ID_nfl.p.31894
 + ID_nfl.p.31896 + ID_nfl.p.31898 + ID_nfl.p.31902 + ID_nfl.p.31908
 + ID_nfl.p.31925 + ID_nfl.p.31934 + ID_nfl.p.31936 + ID_nfl.p.31945
 + ID_nfl.p.31953 + ID_nfl.p.31954 + ID_nfl.p.31960 + ID_nfl.p.31972
 + ID_nfl.p.31973 + ID_nfl.p.31984 + ID_nfl.p.31998 + ID_nfl.p.32006
 + ID_nfl.p.32010 + ID_nfl.p.32014 + ID_nfl.p.32019 + ID_nfl.p.32036
 + ID_nfl.p.32038 + ID_nfl.p.32046 + ID_nfl.p.32052 + ID_nfl.p.32079
 + ID_nfl.p.32123 + ID_nfl.p.32137 + ID_nfl.p.32141 + ID_nfl.p.32187
 + ID_nfl.p.32225 + ID_nfl.p.32295 + ID_nfl.p.32306 + ID_nfl.p.32390
 + ID_nfl.p.32398 + ID_nfl.p.32439 + ID_nfl.p.32447 + ID_nfl.p.32469
 + ID_nfl.p.32471 + ID_nfl.p.32494 + ID_nfl.p.32556 + ID_nfl.p.32581
 + ID_nfl.p.32608 + ID_nfl.p.5967 + ID_nfl.p.6405 + ID_nfl.p.6762
 + ID_nfl.p.6763 + ID_nfl.p.6849 + ID_nfl.p.7426 + ID_nfl.p.7924
 + ID_nfl.p.8261 + ID_nfl.p.8263 + ID_nfl.p.8497 + ID_nfl.p.8544
 + ID_nfl.p.8780 + ID_nfl.p.8795 + ID_nfl.p.9317 + ID_nfl.p.9353
 + ID_nfl.p.9537 + ID_nfl.t.1 + ID_nfl.t.10 + ID_nfl.t.12 + ID_nfl.t.14
 + ID_nfl.t.15 + ID_nfl.t.16 + ID_nfl.t.18 + ID_nfl.t.20 + ID_nfl.t.21
 + ID_nfl.t.22 + ID_nfl.t.23 + ID_nfl.t.24 + ID_nfl.t.25 + ID_nfl.t.26
 + ID_nfl.t.28 + ID_nfl.t.30 + ID_nfl.t.33 + ID_nfl.t.34 + ID_nfl.t.4
 + ID_nfl.t.5 + ID_nfl.t.6 + ID_nfl.t.7 = 9
_C2: ID_nfl.p.24822 + ID_nfl.p.24967 + ID_nfl.p.25712 + ID_nfl.p.25718
 + ID_nfl.p.25785 + ID_nfl.p.25812 + ID_nfl.p.26483 + ID_nfl.p.26662
 + ID_nfl.p.27531 + ID_nfl.p.27560 + ID_nfl.p.27590 + ID_nfl.p.27692
 + ID_nfl.p.27711 + ID_nfl.p.27742 + ID_nfl.p.28390 + ID_nfl.p.28477
 + ID_nfl.p.28535 + ID_nfl.p.29235 + ID_nfl.p.29236 + ID_nfl.p.29369
 + ID_nfl.p.29421 + ID_nfl.p.29435 + ID_nfl.p.30123 + ID_nfl.p.30125
 + ID_nfl.p.30217 + ID_nfl.p.30248 + ID_nfl.p.30563 + ID_nfl.p.30614
 + ID_nfl.p.30788 + ID_nfl.p.30971 + ID_nfl.p.30973 + ID_nfl.p.30980
 + ID_nfl.p.31002 + ID_nfl.p.31169 + ID_nfl.p.31833 + ID_nfl.p.31847
 + ID_nfl.p.31936 + ID_nfl.p.31998 + ID_nfl.p.32010 + ID_nfl.p.32581
 + ID_nfl.p.5967 + ID_nfl.p.6763 + ID_nfl.p.6849 + ID_nfl.p.7426
 + ID_nfl.p.8544 + ID_nfl.p.8780 + ID_nfl.p.8795 = 1
_C3: ID_nfl.t.1 + ID_nfl.t.10 + ID_nfl.t.12 + ID_nfl.t.14 + ID_nfl.t.15
 + ID_nfl.t.16 + ID_nfl.t.18 + ID_nfl.t.20 + ID_nfl.t.21 + ID_nfl.t.22
 + ID_nfl.t.23 + ID_nfl.t.24 + ID_nfl.t.25 + ID_nfl.t.26 + ID_nfl.t.28
 + ID_nfl.t.30 + ID_nfl.t.33 + ID_nfl.t.34 + ID_nfl.t.4 + ID_nfl.t.5
 + ID_nfl.t.6 + ID_nfl.t.7 = 1
_C4: ID_nfl.p.24815 + ID_nfl.p.24913 + ID_nfl.p.24923 + ID_nfl.p.24936
 + ID_nfl.p.25295 + ID_nfl.p.26535 + ID_nfl.p.26660 + ID_nfl.p.26671
 + ID_nfl.p.26777 + ID_nfl.p.26804 + ID_nfl.p.26805 + ID_nfl.p.27135
 + ID_nfl.p.27585 + ID_nfl.p.27631 + ID_nfl.p.28115 + ID_nfl.p.28141
 + ID_nfl.p.28403 + ID_nfl.p.28442 + ID_nfl.p.28461 + ID_nfl.p.28465
 + ID_nfl.p.28482 + ID_nfl.p.28654 + ID_nfl.p.28990 + ID_nfl.p.29238
 + ID_nfl.p.29279 + ID_nfl.p.29307 + ID_nfl.p.29324 + ID_nfl.p.29370
 + ID_nfl.p.29384 + ID_nfl.p.29387 + ID_nfl.p.29410 + ID_nfl.p.29432
 + ID_nfl.p.29470 + ID_nfl.p.29872 + ID_nfl.p.29951 + ID_nfl.p.30061
 + ID_nfl.p.30117 + ID_nfl.p.30154 + ID_nfl.p.30161 + ID_nfl.p.30180
 + ID_nfl.p.30218 + ID_nfl.p.30227 + ID_nfl.p.30269 + ID_nfl.p.30362
 + ID_nfl.p.30423 + ID_nfl.p.30552 + ID_nfl.p.30592 + ID_nfl.p.31005
 + ID_nfl.p.31041 + ID_nfl.p.31082 + ID_nfl.p.31096 + ID_nfl.p.31100
 + ID_nfl.p.31104 + ID_nfl.p.31174 + ID_nfl.p.31221 + ID_nfl.p.31228
 + ID_nfl.p.31379 + ID_nfl.p.31394 + ID_nfl.p.31424 + ID_nfl.p.31457
 + ID_nfl.p.31500 + ID_nfl.p.31537 + ID_nfl.p.31885 + ID_nfl.p.31902
 + ID_nfl.p.31934 + ID_nfl.p.31945 + ID_nfl.p.31954 + ID_nfl.p.31960
 + ID_nfl.p.31972 + ID_nfl.p.31984 + ID_nfl.p.32014 + ID_nfl.p.32036
 + ID_nfl.p.32046 + ID_nfl.p.32052 + ID_nfl.p.32390 + ID_nfl.p.32439
 + ID_nfl.p.32608 + ID_nfl.p.8261 + ID_nfl.p.9317 >= 2
_C5: ID_nfl.p.24815 + ID_nfl.p.24913 + ID_nfl.p.24923 + ID_nfl.p.24936
 + ID_nfl.p.25295 + ID_nfl.p.26535 + ID_nfl.p.26660 + ID_nfl.p.26671
 + ID_nfl.p.26777 + ID_nfl.p.26804 + ID_nfl.p.26805 + ID_nfl.p.27135
 + ID_nfl.p.27585 + ID_nfl.p.27631 + ID_nfl.p.28115 + ID_nfl.p.28141
 + ID_nfl.p.28403 + ID_nfl.p.28442 + ID_nfl.p.28461 + ID_nfl.p.28465
 + ID_nfl.p.28482 + ID_nfl.p.28654 + ID_nfl.p.28990 + ID_nfl.p.29238
 + ID_nfl.p.29279 + ID_nfl.p.29307 + ID_nfl.p.29324 + ID_nfl.p.29370
 + ID_nfl.p.29384 + ID_nfl.p.29387 + ID_nfl.p.29410 + ID_nfl.p.29432
 + ID_nfl.p.29470 + ID_nfl.p.29872 + ID_nfl.p.29951 + ID_nfl.p.30061
 + ID_nfl.p.30117 + ID_nfl.p.30154 + ID_nfl.p.30161 + ID_nfl.p.30180
 + ID_nfl.p.30218 + ID_nfl.p.30227 + ID_nfl.p.30269 + ID_nfl.p.30362
 + ID_nfl.p.30423 + ID_nfl.p.30552 + ID_nfl.p.30592 + ID_nfl.p.31005
 + ID_nfl.p.31041 + ID_nfl.p.31082 + ID_nfl.p.31096 + ID_nfl.p.31100
 + ID_nfl.p.31104 + ID_nfl.p.31174 + ID_nfl.p.31221 + ID_nfl.p.31228
 + ID_nfl.p.31379 + ID_nfl.p.31394 + ID_nfl.p.31424 + ID_nfl.p.31457
 + ID_nfl.p.31500 + ID_nfl.p.31537 + ID_nfl.p.31885 + ID_nfl.p.31902
 + ID_nfl.p.31934 + ID_nfl.p.31945 + ID_nfl.p.31954 + ID_nfl.p.31960
 + ID_nfl.p.31972 + ID_nfl.p.31984 + ID_nfl.p.32014 + ID_nfl.p.32036
 + ID_nfl.p.32046 + ID_nfl.p.32052 + ID_nfl.p.32390 + ID_nfl.p.32439
 + ID_nfl.p.32608 + ID_nfl.p.8261 + ID_nfl.p.9317 <= 3
_C6: ID_nfl.p.24057 + ID_nfl.p.24793 + ID_nfl.p.25755 + ID_nfl.p.25793
 + ID_nfl.p.25810 + ID_nfl.p.26631 + ID_nfl.p.26650 + ID_nfl.p.26664
 + ID_nfl.p.26699 + ID_nfl.p.26701 + ID_nfl.p.27074 + ID_nfl.p.27277
 + ID_nfl.p.27540 + ID_nfl.p.27548 + ID_nfl.p.27567 + ID_nfl.p.27570
 + ID_nfl.p.27573 + ID_nfl.p.27591 + ID_nfl.p.27618 + ID_nfl.p.27652
 + ID_nfl.p.27874 + ID_nfl.p.28026 + ID_nfl.p.28046 + ID_nfl.p.28214
 + ID_nfl.p.28279 + ID_nfl.p.28392 + ID_nfl.p.28402 + ID_nfl.p.28408
 + ID_nfl.p.28425 + ID_nfl.p.28457 + ID_nfl.p.28464 + ID_nfl.p.28493
 + ID_nfl.p.28495 + ID_nfl.p.28534 + ID_nfl.p.28574 + ID_nfl.p.28947
 + ID_nfl.p.29038 + ID_nfl.p.29070 + ID_nfl.p.29255 + ID_nfl.p.29257
 + ID_nfl.p.29281 + ID_nfl.p.29288 + ID_nfl.p.29341 + ID_nfl.p.29351
 + ID_nfl.p.29360 + ID_nfl.p.29374 + ID_nfl.p.29399 + ID_nfl.p.29406
 + ID_nfl.p.29440 + ID_nfl.p.29703 + ID_nfl.p.29785 + ID_nfl.p.29958
 + ID_nfl.p.30118 + ID_nfl.p.30120 + ID_nfl.p.30175 + ID_nfl.p.30182
 + ID_nfl.p.30223 + ID_nfl.p.30230 + ID_nfl.p.30231 + ID_nfl.p.30246
 + ID_nfl.p.30339 + ID_nfl.p.30350 + ID_nfl.p.30396 + ID_nfl.p.30430
 + ID_nfl.p.30531 + ID_nfl.p.30551 + ID_nfl.p.30656 + ID_nfl.p.30901
 + ID_nfl.p.30996 + ID_nfl.p.31010 + ID_nfl.p.31014 + ID_nfl.p.31031
 + ID_nfl.p.31051 + ID_nfl.p.31073 + ID_nfl.p.31075 + ID_nfl.p.31083
 + ID_nfl.p.31102 + ID_nfl.p.31164 + ID_nfl.p.31178 + ID_nfl.p.31180
 + ID_nfl.p.31210 + ID_nfl.p.31223 + ID_nfl.p.31226 + ID_nfl.p.31320
 + ID_nfl.p.31496 + ID_nfl.p.31557 + ID_nfl.p.31588 + ID_nfl.p.31769
 + ID_nfl.p.31777 + ID_nfl.p.31868 + ID_nfl.p.31883 + ID_nfl.p.31888
 + ID_nfl.p.31889 + ID_nfl.p.31894 + ID_nfl.p.31896 + ID_nfl.p.31898
 + ID_nfl.p.31908 + ID_nfl.p.31925 + ID_nfl.p.32006 + ID_nfl.p.32019
 + ID_nfl.p.32038 + ID_nfl.p.32079 + ID_nfl.p.32123 + ID_nfl.p.32137
 + ID_nfl.p.32141 + ID_nfl.p.32187 + ID_nfl.p.32398 + ID_nfl.p.32447
 + ID_nfl.p.32469 + ID_nfl.p.32471 + ID_nfl.p.32494 + ID_nfl.p.32556
 + ID_nfl.p.6762 + ID_nfl.p.8263 >= 3
_C7: ID_nfl.p.24057 + ID_nfl.p.24793 + ID_nfl.p.25755 + ID_nfl.p.25793
 + ID_nfl.p.25810 + ID_nfl.p.26631 + ID_nfl.p.26650 + ID_nfl.p.26664
 + ID_nfl.p.26699 + ID_nfl.p.26701 + ID_nfl.p.27074 + ID_nfl.p.27277
 + ID_nfl.p.27540 + ID_nfl.p.27548 + ID_nfl.p.27567 + ID_nfl.p.27570
 + ID_nfl.p.27573 + ID_nfl.p.27591 + ID_nfl.p.27618 + ID_nfl.p.27652
 + ID_nfl.p.27874 + ID_nfl.p.28026 + ID_nfl.p.28046 + ID_nfl.p.28214
 + ID_nfl.p.28279 + ID_nfl.p.28392 + ID_nfl.p.28402 + ID_nfl.p.28408
 + ID_nfl.p.28425 + ID_nfl.p.28457 + ID_nfl.p.28464 + ID_nfl.p.28493
 + ID_nfl.p.28495 + ID_nfl.p.28534 + ID_nfl.p.28574 + ID_nfl.p.28947
 + ID_nfl.p.29038 + ID_nfl.p.29070 + ID_nfl.p.29255 + ID_nfl.p.29257
 + ID_nfl.p.29281 + ID_nfl.p.29288 + ID_nfl.p.29341 + ID_nfl.p.29351
 + ID_nfl.p.29360 + ID_nfl.p.29374 + ID_nfl.p.29399 + ID_nfl.p.29406
 + ID_nfl.p.29440 + ID_nfl.p.29703 + ID_nfl.p.29785 + ID_nfl.p.29958
 + ID_nfl.p.30118 + ID_nfl.p.30120 + ID_nfl.p.30175 + ID_nfl.p.30182
 + ID_nfl.p.30223 + ID_nfl.p.30230 + ID_nfl.p.30231 + ID_nfl.p.30246
 + ID_nfl.p.30339 + ID_nfl.p.30350 + ID_nfl.p.30396 + ID_nfl.p.30430
 + ID_nfl.p.30531 + ID_nfl.p.30551 + ID_nfl.p.30656 + ID_nfl.p.30901
 + ID_nfl.p.30996 + ID_nfl.p.31010 + ID_nfl.p.31014 + ID_nfl.p.31031
 + ID_nfl.p.31051 + ID_nfl.p.31073 + ID_nfl.p.31075 + ID_nfl.p.31083
 + ID_nfl.p.31102 + ID_nfl.p.31164 + ID_nfl.p.31178 + ID_nfl.p.31180
 + ID_nfl.p.31210 + ID_nfl.p.31223 + ID_nfl.p.31226 + ID_nfl.p.31320
 + ID_nfl.p.31496 + ID_nfl.p.31557 + ID_nfl.p.31588 + ID_nfl.p.31769
 + ID_nfl.p.31777 + ID_nfl.p.31868 + ID_nfl.p.31883 + ID_nfl.p.31888
 + ID_nfl.p.31889 + ID_nfl.p.31894 + ID_nfl.p.31896 + ID_nfl.p.31898
 + ID_nfl.p.31908 + ID_nfl.p.31925 + ID_nfl.p.32006 + ID_nfl.p.32019
 + ID_nfl.p.32038 + ID_nfl.p.32079 + ID_nfl.p.32123 + ID_nfl.p.32137
 + ID_nfl.p.32141 + ID_nfl.p.32187 + ID_nfl.p.32398 + ID_nfl.p.32447
 + ID_nfl.p.32469 + ID_nfl.p.32471 + ID_nfl.p.32494 + ID_nfl.p.32556
 + ID_nfl.p.6762 + ID_nfl.p.8263 <= 4
_C8: ID_nfl.p.24830 + ID_nfl.p.24834 + ID_nfl.p.24891 + ID_nfl.p.24961
 + ID_nfl.p.24991 + ID_nfl.p.26016 + ID_nfl.p.26612 + ID_nfl.p.26644
 + ID_nfl.p.26658 + ID_nfl.p.26678 + ID_nfl.p.26686 + ID_nfl.p.26756
 + ID_nfl.p.26781 + ID_nfl.p.26824 + ID_nfl.p.26950 + ID_nfl.p.27174
 + ID_nfl.p.27494 + ID_nfl.p.28221 + ID_nfl.p.28348 + ID_nfl.p.28443
 + ID_nfl.p.28480 + ID_nfl.p.28505 + ID_nfl.p.28531 + ID_nfl.p.28545
 + ID_nfl.p.28559 + ID_nfl.p.28582 + ID_nfl.p.28634 + ID_nfl.p.29102
 + ID_nfl.p.29315 + ID_nfl.p.29328 + ID_nfl.p.29344 + ID_nfl.p.29372
 + ID_nfl.p.29789 + ID_nfl.p.30157 + ID_nfl.p.30213 + ID_nfl.p.30267
 + ID_nfl.p.30373 + ID_nfl.p.30494 + ID_nfl.p.30523 + ID_nfl.p.30571
 + ID_nfl.p.30577 + ID_nfl.p.30627 + ID_nfl.p.30784 + ID_nfl.p.30995
 + ID_nfl.p.31012 + ID_nfl.p.31019 + ID_nfl.p.31056 + ID_nfl.p.31068
 + ID_nfl.p.31090 + ID_nfl.p.31093 + ID_nfl.p.31107 + ID_nfl.p.31126
 + ID_nfl.p.31127 + ID_nfl.p.31329 + ID_nfl.p.31519 + ID_nfl.p.31749
 + ID_nfl.p.31852 + ID_nfl.p.31882 + ID_nfl.p.31884 + ID_nfl.p.31953
 + ID_nfl.p.31973 + ID_nfl.p.32225 + ID_nfl.p.32295 + ID_nfl.p.32306
 + ID_nfl.p.6405 + ID_nfl.p.7924 + ID_nfl.p.8497 + ID_nfl.p.9353
 + ID_nfl.p.9537 >= 2
_C9: ID_nfl.p.24830 + ID_nfl.p.24834 + ID_nfl.p.24891 + ID_nfl.p.24961
 + ID_nfl.p.24991 + ID_nfl.p.26016 + ID_nfl.p.26612 + ID_nfl.p.26644
 + ID_nfl.p.26658 + ID_nfl.p.26678 + ID_nfl.p.26686 + ID_nfl.p.26756
 + ID_nfl.p.26781 + ID_nfl.p.26824 + ID_nfl.p.26950 + ID_nfl.p.27174
 + ID_nfl.p.27494 + ID_nfl.p.28221 + ID_nfl.p.28348 + ID_nfl.p.28443
 + ID_nfl.p.28480 + ID_nfl.p.28505 + ID_nfl.p.28531 + ID_nfl.p.28545
 + ID_nfl.p.28559 + ID_nfl.p.28582 + ID_nfl.p.28634 + ID_nfl.p.29102
 + ID_nfl.p.29315 + ID_nfl.p.29328 + ID_nfl.p.29344 + ID_nfl.p.29372
 + ID_nfl.p.29789 + ID_nfl.p.30157 + ID_nfl.p.30213 + ID_nfl.p.30267
 + ID_nfl.p.30373 + ID_nfl.p.30494 + ID_nfl.p.30523 + ID_nfl.p.30571
 + ID_nfl.p.30577 + ID_nfl.p.30627 + ID_nfl.p.30784 + ID_nfl.p.30995
 + ID_nfl.p.31012 + ID_nfl.p.31019 + ID_nfl.p.31056 + ID_nfl.p.31068
 + ID_nfl.p.31090 + ID_nfl.p.31093 + ID_nfl.p.31107 + ID_nfl.p.31126
 + ID_nfl.p.31127 + ID_nfl.p.31329 + ID_nfl.p.31519 + ID_nfl.p.31749
 + ID_nfl.p.31852 + ID_nfl.p.31882 + ID_nfl.p.31884 + ID_nfl.p.31953
 + ID_nfl.p.31973 + ID_nfl.p.32225 + ID_nfl.p.32295 + ID_nfl.p.32306
 + ID_nfl.p.6405 + ID_nfl.p.7924 + ID_nfl.p.8497 + ID_nfl.p.9353
 + ID_nfl.p.9537 <= 3
Binaries
ID_nfl.p.24057
ID_nfl.p.24793
ID_nfl.p.24815
ID_nfl.p.24822
ID_nfl.p.24830
ID_nfl.p.24834
ID_nfl.p.24891
ID_nfl.p.24913
ID_nfl.p.24923
ID_nfl.p.24936
ID_nfl.p.24961
ID_nfl.p.24967
ID_nfl.p.24991
ID_nfl.p.25295
ID_nfl.p.25712
ID_nfl.p.25718
ID_nfl.p.25755
ID_nfl.p.25785
ID_nfl.p.25793
ID_nfl.p.25810
ID_nfl.p.25812
ID_nfl.p.26016
ID_nfl.p.26483
ID_nfl.p.26535
ID_nfl.p.26612
ID_nfl.p.26631
ID_nfl.p.26644
ID_nfl.p.26650
ID_nfl.p.26658
ID_nfl.p.26660
ID_nfl.p.26662
ID_nfl.p.26664
ID_nfl.p.26671
ID_nfl.p.26678
ID_nfl.p.26686
ID_nfl.p.26699
ID_nfl.p.26701
ID_nfl.p.26756
ID_nfl.p.26777
ID_nfl.p.26781
ID_nfl.p.26804
ID_nfl.p.26805
ID_nfl.p.26824
ID_nfl.p.26950
ID_nfl.p.27074
ID_nfl.p.27135
ID_nfl.p.27174
ID_nfl.p.27277
ID_nfl.p.27494
ID_nfl.p.27531
ID_nfl.p.27540
ID_nfl.p.27548
ID_nfl.p.27560
ID_nfl.p.27567
ID_nfl.p.27570
ID_nfl.p.27573
ID_nfl.p.27585
ID_nfl.p.27590
ID_nfl.p.27591
ID_nfl.p.27618
ID_nfl.p.27631
ID_nfl.p.27652
ID_nfl.p.27692
ID_nfl.p.27711
ID_nfl.p.27742
ID_nfl.p.27874
ID_nfl.p.28026
ID_nfl.p.28046
ID_nfl.p.28115
ID_nfl.p.28141
ID_nfl.p.28214
ID_nfl.p.28221
ID_nfl.p.28279
ID_nfl.p.28348
ID_nfl.p.28390
ID_nfl.p.28392
ID_nfl.p.28402
ID_nfl.p.28403
ID_nfl.p.28408
ID_nfl.p.28425
ID_nfl.p.28442
ID_nfl.p.28443
ID_nfl.p.28457
ID_nfl.p.28461
ID_nfl.p.28464
ID_nfl.p.28465
ID_nfl.p.28477
ID_nfl.p.28480
ID_nfl.p.28482
ID_nfl.p.28493
ID_nfl.p.28495
ID_nfl.p.28505
ID_nfl.p.28531
ID_nfl.p.28534
ID_nfl.p.28535
ID_nfl.p.28545
ID_nfl.p.28559
ID_nfl.p.28574
ID_nfl.p.28582
ID_nfl.p.28634
ID_nfl.p.28654
ID_nfl.p.28947
ID_nfl.p.28990
ID_nfl.p.29038
ID_nfl.p.29070
ID_nfl.p.29102
ID_nfl.p.29235
ID_nfl.p.29236
ID_nfl.p.29238
ID_nfl.p.29255
ID_nfl.p.29257
ID_nfl.p.29279
ID_nfl.p.29281
ID_nfl.p.29288
ID_nfl.p.29307
ID_nfl.p.29315
ID_nfl.p.29324
ID_nfl.p.29328
ID_nfl.p.29341
ID_nfl.p.29344
ID_nfl.p.29351
ID_nfl.p.29360
ID_nfl.p.29369
ID_nfl.p.29370
ID_nfl.p.29372
ID_nfl.p.29374
ID_nfl.p.29384
ID_nfl.p.29387
ID_nfl.p.29399
ID_nfl.p.29406
ID_nfl.p.29410
ID_nfl.p.29421
ID_nfl.p.29432
ID_nfl.p.29435
ID_nfl.p.29440
ID_nfl.p.29470
ID_nfl.p.29703
ID_nfl.p.29785
ID_nfl.p.29789
ID_nfl.p.29872
ID_nfl.p.29951
ID_nfl.p.29958
ID_nfl.p.30061
ID_nfl.p.30117
ID_nfl.p.30118
ID_nfl.p.30120
ID_nfl.p.30123
ID_nfl.p.30125
ID_nfl.p.30154
ID_nfl.p.30157
ID_nfl.p.30161
ID_nfl.p.30175
ID_nfl.p.30180
ID_nfl.p.30182
ID_nfl.p.30213
ID_nfl.p.30217
ID_nfl.p.30218
ID_nfl.p.30223
ID_nfl.p.30227
ID_nfl.p.30230
ID_nfl.p.30231
ID_nfl.p.30246
ID_nfl.p.30248
ID_nfl.p.30267
ID_nfl.p.30269
ID_nfl.p.30339
ID_nfl.p.30350
ID_nfl.p.30362
ID_nfl.p.30373
ID_nfl.p.30396
ID_nfl.p.30423
ID_nfl.p.30430
ID_nfl.p.30494
ID_nfl.p.30523
ID_nfl.p.30531
ID_nfl.p.30551
ID_nfl.p.30552
ID_nfl.p.30563
ID_nfl.p.30571
ID_nfl.p.30577
ID_nfl.p.30592
ID_nfl.p.30614
ID_nfl.p.30627
ID_nfl.p.30656
ID_nfl.p.30784
ID_nfl.p.30788
ID_nfl.p.30901
ID_nfl.p.30971
ID_nfl.p.30973
ID_nfl.p.30980
ID_nfl.p.30995
ID_nfl.p.30996
ID_nfl.p.31002
ID_nfl.p.31005
ID_nfl.p.31010
ID_nfl.p.31012
ID_nfl.p.31014
ID_nfl.p.31019
ID_nfl.p.31031
ID_nfl.p.31041
ID_nfl.p.31051
ID_nfl.p.31056
ID_nfl.p.31068
ID_nfl.p.31073
ID_nfl.p.31075
ID_nfl.p.31082
ID_nfl.p.31083
ID_nfl.p.31090
ID_nfl.p.31093
ID_nfl.p.31096
ID_nfl.p.31100
ID_nfl.p.31102
ID_nfl.p.31104
ID_nfl.p.31107
ID_nfl.p.31126
ID_nfl.p.31127
ID_nfl.p.31164
ID_nfl.p.31169
ID_nfl.p.31174
ID_nfl.p.31178
ID_nfl.p.31180
ID_nfl.p.31210
ID_nfl.p.31221
ID_nfl.p.31223
ID_nfl.p.31226
ID_nfl.p.31228
ID_nfl.p.31320
ID_nfl.p.31329
ID_nfl.p.31379
ID_nfl.p.31394
ID_nfl.p.31424
ID_nfl.p.31457
ID_nfl.p.31496
ID_nfl.p.31500
ID_nfl.p.31519
ID_nfl.p.31537
ID_nfl.p.31557
ID_nfl.p.31588
ID_nfl.p.31749
ID_nfl.p.31769
ID_nfl.p.31777
ID_nfl.p.31833
ID_nfl.p.31847
ID_nfl.p.31852
ID_nfl.p.31868
ID_nfl.p.31882
ID_nfl.p.31883
ID_nfl.p.31884
ID_nfl.p.31885
ID_nfl.p.31888
ID_nfl.p.31889
ID_nfl.p.31894
ID_nfl.p.31896
ID_nfl.p.31898
ID_nfl.p.31902
ID_nfl.p.31908
ID_nfl.p.31925
ID_nfl.p.31934
ID_nfl.p.31936
ID_nfl.p.31945
ID_nfl.p.31953
ID_nfl.p.31954
ID_nfl.p.31960
ID_nfl.p.31972
ID_nfl.p.31973
ID_nfl.p.31984
ID_nfl.p.31998
ID_nfl.p.32006
ID_nfl.p.32010
ID_nfl.p.32014
ID_nfl.p.32019
ID_nfl.p.32036
ID_nfl.p.32038
ID_nfl.p.32046
ID_nfl.p.32052
ID_nfl.p.32079
ID_nfl.p.32123
ID_nfl.p.32137
ID_nfl.p.32141
ID_nfl.p.32187
ID_nfl.p.32225
ID_nfl.p.32295
ID_nfl.p.32306
ID_nfl.p.32390
ID_nfl.p.32398
ID_nfl.p.32439
ID_nfl.p.32447
ID_nfl.p.32469
ID_nfl.p.32471
ID_nfl.p.32494
ID_nfl.p.32556
ID_nfl.p.32581
ID_nfl.p.32608
ID_nfl.p.5967
ID_nfl.p.6405
ID_nfl.p.6762
ID_nfl.p.6763
ID_nfl.p.6849
ID_nfl.p.7426
ID_nfl.p.7924
ID_nfl.p.8261
ID_nfl.p.8263
ID_nfl.p.8497
ID_nfl.p.8544
ID_nfl.p.8780
ID_nfl.p.8795
ID_nfl.p.9317
ID_nfl.p.9353
ID_nfl.p.9537
ID_nfl.t.1
ID_nfl.t.10
ID_nfl.t.12
ID_nfl.t.14
ID_nfl.t.15
ID_nfl.t.16
ID_nfl.t.18
ID_nfl.t.20
ID_nfl.t.21
ID_nfl.t.22
ID_nfl.t.23
ID_nfl.t.24
ID_nfl.t.25
ID_nfl.t.26
ID_nfl.t.28
ID_nfl.t.30
ID_nfl.t.33
ID_nfl.t.34
ID_nfl.t.4
ID_nfl.t.5
ID_nfl.t.6
ID_nfl.t.7
End
